p tw 1149 2044
1 194
1 585
1 586
1 709
1 769
1 770
1 855
1 856
2 872
2 873
3 965
3 966
4 1084
4 1085
5 929
5 930
6 896
6 897
7 886
7 887
8 976
8 977
9 537
9 538
10 884
10 885
11 996
11 997
12 1030
12 1031
13 1032
13 1033
14 1135
14 1136
15 935
15 936
16 1108
16 1109
17 1112
17 1113
18 1014
18 1015
19 178
19 473
19 474
19 491
19 492
19 613
19 614
19 712
20 908
20 909
21 485
21 486
21 503
21 504
21 514
21 515
21 726
21 727
22 926
22 927
23 797
23 798
24 600
24 601
24 727
24 728
24 782
24 783
25 1082
25 1083
26 851
26 852
27 823
27 824
27 1106
27 1107
28 839
28 840
28 981
28 982
29 623
29 624
30 515
30 516
30 728
30 729
30 783
30 784
31 1063
31 1064
32 516
32 517
33 647
33 648
34 1062
34 1063
35 564
35 565
35 739
35 740
35 835
35 836
36 482
36 483
36 500
36 501
36 530
36 531
37 876
37 877
38 894
38 895
39 1146
39 1147
40 1099
40 1100
41 1069
41 1070
42 991
42 992
43 893
43 894
44 607
44 608
45 1001
45 1002
46 1095
46 1096
47 615
47 616
48 1107
48 1108
49 536
49 537
49 808
49 809
49 924
49 925
50 985
50 986
51 1027
51 1028
52 512
52 513
53 1003
53 1004
54 1143
54 1144
55 665
55 666
56 534
56 535
56 807
56 808
56 920
56 921
57 700
57 701
57 964
57 965
58 988
58 989
59 575
59 576
59 710
59 711
59 757
59 758
60 1105
60 1106
61 889
61 890
62 1055
62 1056
63 974
63 975
64 535
64 536
65 865
65 866
66 1011
66 1012
67 1013
67 1014
68 559
68 560
69 925
69 926
70 1050
70 1051
71 1026
71 1027
72 1044
72 1045
73 668
73 669
74 950
74 951
75 1061
75 1062
76 943
76 944
77 1118
77 1119
78 1087
78 1088
79 1129
79 1130
80 581
80 582
80 703
80 704
81 640
81 641
82 1037
82 1038
83 992
83 993
84 958
84 959
85 870
85 871
86 675
86 676
86 848
86 849
86 1140
86 1141
87 989
87 990
88 697
88 698
89 518
89 519
90 914
90 915
91 880
91 881
92 947
92 948
93 869
93 870
94 1040
94 1041
95 1089
95 1090
96 472
96 473
96 490
96 491
96 578
96 579
96 761
96 762
97 861
97 862
98 674
98 675
99 632
99 633
100 519
100 520
101 1147
101 1148
102 1045
102 1046
103 513
103 514
103 725
103 726
103 781
103 782
104 1071
104 1072
105 942
105 943
106 1126
106 1127
107 648
107 649
108 586
108 587
109 1141
109 1142
110 611
110 612
110 1051
110 1052
111 1008
111 1009
112 597
112 598
113 471
113 472
113 489
113 490
113 614
113 615
114 1066
114 1067
115 509
115 510
115 774
115 775
115 859
115 860
116 946
116 947
117 620
117 621
117 745
117 746
117 799
117 800
118 899
118 900
119 621
119 622
120 582
120 583
121 998
121 999
122 1086
122 1087
123 1039
123 1040
124 919
124 920
125 1131
125 1132
126 598
126 599
127 786
127 787
127 885
127 886
128 1091
128 1092
129 679
129 680
129 1145
129 1146
130 563
130 564
130 971
130 972
131 149
131 486
131 504
131 609
131 610
132 917
132 918
133 639
133 640
134 1094
134 1095
135 1056
135 1057
136 624
136 625
136 749
136 750
137 1012
137 1013
138 634
138 635
139 878
139 879
140 1035
140 1036
141 1052
141 1053
142 840
142 841
142 982
142 983
143 940
143 941
144 656
144 657
144 830
144 831
144 1121
144 1122
145 548
145 549
146 951
146 952
147 399
147 627
147 628
147 683
147 754
147 755
148 1134
148 1135
149 486
149 504
149 626
149 627
149 1070
149 1071
150 1005
150 1006
151 1100
151 1101
152 1132
152 1133
153 520
153 521
153 887
153 888
154 904
154 905
155 918
155 919
156 997
156 998
157 635
157 636
158 1133
158 1134
159 915
159 916
160 1049
160 1050
161 601
161 602
162 1000
162 1001
163 481
163 482
163 499
163 500
163 649
163 650
163 724
163 725
164 678
164 679
165 1007
165 1008
166 939
166 940
167 897
167 898
168 672
168 673
169 570
169 571
169 748
169 749
169 843
169 844
170 1009
170 1010
171 913
171 914
172 955
172 956
173 948
173 949
174 1019
174 1020
175 994
175 995
176 1024
176 1025
177 941
177 942
178 315
178 451
178 507
178 653
178 654
178 712
178 772
178 1149
179 966
179 967
180 480
180 481
180 497
180 498
180 606
180 607
180 789
180 790
181 949
181 950
182 556
182 557
182 731
182 732
182 824
182 825
183 909
183 910
184 651
184 652
185 1020
185 1021
186 474
186 475
186 492
186 493
186 533
186 534
186 762
186 763
186 806
186 807
187 1090
187 1091
188 592
188 593
189 1065
189 1066
190 1068
190 1069
191 646
191 647
191 685
191 686
191 816
191 817
192 643
192 644
192 705
192 706
192 811
192 812
193 691
193 692
194 234
194 587
194 588
194 709
194 771
194 856
194 857
195 637
195 638
195 701
195 702
195 809
195 810
196 928
196 929
197 633
197 634
197 763
197 764
197 805
197 806
198 907
198 908
199 862
199 863
200 1053
200 1054
201 933
201 934
202 921
202 922
203 696
203 697
203 995
203 996
204 652
204 653
204 826
204 827
204 1110
204 1111
205 957
205 958
206 704
206 705
207 543
207 544
207 934
207 935
208 676
208 677
208 764
208 765
209 475
209 476
209 493
209 494
209 594
209 595
209 717
209 718
209 778
209 779
210 484
210 485
210 502
210 503
210 523
210 524
210 736
210 737
210 892
210 893
211 562
211 563
212 902
212 903
213 1137
213 1138
214 1088
214 1089
215 1144
215 1145
216 605
216 606
217 595
217 596
217 719
217 720
217 780
217 781
218 1102
218 1103
219 984
219 985
220 911
220 912
221 801
221 802
222 1048
222 1049
223 666
223 667
224 1015
224 1016
225 1097
225 1098
226 959
226 960
227 1117
227 1118
228 568
228 569
229 882
229 883
230 860
230 861
231 477
231 478
231 495
231 496
231 549
231 550
232 850
232 851
233 980
233 981
234 342
234 589
234 590
234 771
234 857
235 1128
235 1129
236 558
236 559
236 962
236 963
237 1109
237 1110
238 541
238 542
239 588
239 589
240 667
240 668
241 630
241 631
241 756
241 757
242 979
242 980
243 1078
243 1079
244 1029
244 1030
245 622
245 623
246 936
246 937
247 1111
247 1112
248 1098
248 1099
249 961
249 962
250 1042
250 1043
251 890
251 891
252 1122
252 1123
253 521
253 522
253 733
253 734
253 788
253 789
254 610
254 611
255 684
255 685
256 645
256 646
256 815
256 816
257 551
257 552
257 820
257 821
258 659
258 660
258 734
258 735
258 831
258 832
259 524
259 525
259 793
259 794
259 900
259 901
260 552
260 553
260 722
260 723
261 508
261 509
261 713
261 714
261 773
261 774
262 922
262 923
263 787
263 788
264 669
264 670
265 629
265 630
266 555
266 556
266 822
266 823
266 956
266 957
267 692
267 693
268 540
268 541
268 767
268 768
268 812
268 813
269 873
269 874
270 1038
270 1039
271 550
271 551
271 721
271 722
271 819
271 820
272 792
272 793
273 1101
273 1102
274 932
274 933
275 975
275 976
276 1092
276 1093
277 871
277 872
278 625
278 626
278 751
278 752
278 802
278 803
279 702
279 703
279 829
279 830
280 572
280 573
281 688
281 689
282 596
282 597
283 1114
283 1115
284 511
284 512
284 716
284 717
284 776
284 777
285 777
285 778
285 863
285 864
286 1022
286 1023
287 599
287 600
288 525
288 526
288 743
288 744
288 795
288 796
289 1033
289 1034
290 841
290 842
291 883
291 884
292 690
292 691
293 879
293 880
294 1058
294 1059
295 479
295 480
295 498
295 499
295 571
295 572
295 747
295 748
296 560
296 561
297 526
297 527
297 744
297 745
298 1004
298 1005
299 510
299 511
299 715
299 716
299 775
299 776
300 1104
300 1105
301 875
301 876
302 529
302 530
302 746
302 747
302 800
302 801
303 1046
303 1047
304 1043
304 1044
305 927
305 928
306 584
306 585
306 768
306 769
306 853
306 854
307 670
307 671
307 695
307 696
308 553
308 554
308 821
308 822
309 1034
309 1035
310 698
310 699
310 954
310 955
311 590
311 591
312 1096
312 1097
313 912
313 913
314 580
314 581
314 765
314 766
314 849
314 850
314 1006
314 1007
315 507
316 616
316 617
316 794
316 795
317 867
317 868
318 470
318 471
318 488
318 489
318 612
318 613
318 741
318 742
318 791
318 792
319 531
319 532
319 752
319 753
319 803
319 804
320 532
320 533
320 758
320 759
321 1142
321 1143
322 813
322 814
323 993
323 994
324 1081
324 1082
325 1021
325 1022
326 660
326 661
326 737
326 738
326 833
326 834
327 608
327 609
328 1139
328 1140
329 641
329 642
330 868
330 869
331 546
331 547
332 1054
332 1055
333 1075
333 1076
334 554
334 555
334 953
334 954
335 945
335 946
336 944
336 945
337 566
337 567
338 906
338 907
339 638
339 639
339 682
339 683
339 766
339 767
339 810
339 811
340 837
340 838
341 569
341 570
341 842
341 843
342 353
342 370
342 680
342 857
342 1148
343 706
343 707
344 664
344 665
345 602
345 603
345 729
345 730
345 784
345 785
346 1116
346 1117
347 1123
347 1124
348 1016
348 1017
349 538
349 539
350 952
350 953
351 544
351 545
351 814
351 815
351 937
351 938
352 1010
352 1011
353 680
353 770
353 771
353 854
353 855
354 517
354 518
354 730
354 731
354 785
354 786
355 910
355 911
356 977
356 978
357 963
357 964
358 577
358 578
359 888
359 889
360 916
360 917
361 1093
361 1094
362 591
362 592
362 714
362 715
363 1002
363 1003
364 930
364 931
365 617
365 618
365 687
365 688
366 968
366 969
367 527
367 528
368 1064
368 1065
369 604
369 605
370 1148
371 881
371 882
372 983
372 984
373 693
373 694
374 1124
374 1125
375 1074
375 1075
376 557
376 558
376 825
376 826
376 960
376 961
377 999
377 1000
378 1113
378 1114
379 986
379 987
380 1079
380 1080
381 505
381 506
382 618
382 619
383 661
383 662
383 738
383 739
383 834
383 835
384 542
384 543
385 1060
385 1061
386 654
386 655
386 732
386 733
386 827
386 828
387 644
387 645
388 694
388 695
389 779
389 780
390 1103
390 1104
391 931
391 932
392 1031
392 1032
393 1057
393 1058
394 708
394 709
395 663
395 664
395 742
395 743
395 838
395 839
396 796
396 797
396 1059
396 1060
397 1067
397 1068
398 1036
398 1037
399 650
399 651
399 683
399 723
399 724
400 468
400 469
400 574
400 575
400 755
400 756
401 1138
401 1139
402 657
402 658
403 567
403 568
403 978
403 979
404 545
404 546
404 718
404 719
404 818
404 819
405 990
405 991
406 478
406 479
406 496
406 497
406 642
406 643
407 677
407 678
408 1072
408 1073
409 874
409 875
410 565
410 566
410 972
410 973
411 699
411 700
412 817
412 818
413 1018
413 1019
414 655
414 656
414 1115
414 1116
415 628
415 629
415 1073
415 1074
416 603
416 604
417 658
417 659
417 735
417 736
418 662
418 663
418 740
418 741
418 836
418 837
419 970
419 971
420 579
420 580
421 898
421 899
422 987
422 988
423 631
423 632
423 759
423 760
423 804
423 805
424 583
424 584
424 852
424 853
424 1017
424 1018
425 1077
425 1078
426 593
426 594
426 1025
426 1026
427 903
427 904
428 1125
428 1126
429 1041
429 1042
430 895
430 896
431 1076
431 1077
432 671
432 672
432 753
432 754
432 845
432 846
433 1120
433 1121
434 866
434 867
435 858
435 859
436 832
436 833
437 619
437 620
438 1047
438 1048
439 483
439 484
439 501
439 502
439 573
439 574
439 750
439 751
439 844
439 845
440 576
440 577
441 891
441 892
442 901
442 902
443 1130
443 1131
444 1127
444 1128
445 1136
445 1137
446 864
446 865
447 686
447 687
448 969
448 970
449 1028
449 1029
450 561
450 562
450 828
450 829
450 967
450 968
451 476
451 477
451 494
451 495
451 506
451 507
451 547
451 548
451 711
451 712
451 720
451 721
451 772
451 1149
452 528
452 529
452 689
452 690
452 798
452 799
452 905
452 906
453 636
453 637
454 1119
454 1120
455 938
455 939
456 1085
456 1086
457 923
457 924
458 877
458 878
459 469
459 470
459 487
459 488
460 522
460 523
460 790
460 791
461 973
461 974
462 1080
462 1081
463 673
463 674
463 681
463 682
463 760
463 761
463 846
463 847
464 1083
464 1084
465 539
465 540
465 707
465 708
466 847
466 848
467 1023
467 1024
468 469
469 470
470 471
471 472
472 473
473 474
474 475
475 476
476 477
477 478
478 479
479 480
480 481
481 482
482 483
483 484
484 485
485 486
487 488
488 489
489 490
490 491
491 492
492 493
493 494
494 495
495 496
496 497
497 498
498 499
499 500
500 501
501 502
502 503
503 504
505 506
506 507
508 509
509 510
510 511
511 512
512 513
513 514
514 515
515 516
516 517
517 518
518 519
519 520
520 521
521 522
522 523
523 524
524 525
525 526
526 527
527 528
528 529
529 530
530 531
531 532
532 533
533 534
534 535
535 536
536 537
537 538
538 539
539 540
540 541
541 542
542 543
543 544
544 545
545 546
546 547
547 548
548 549
549 550
550 551
551 552
552 553
553 554
554 555
555 556
556 557
557 558
558 559
559 560
560 561
561 562
562 563
563 564
564 565
565 566
566 567
567 568
568 569
569 570
570 571
571 572
572 573
573 574
574 575
575 576
576 577
577 578
578 579
579 580
580 581
581 582
582 583
583 584
584 585
585 586
586 587
587 588
588 589
589 590
590 591
591 592
592 593
593 594
594 595
595 596
596 597
597 598
598 599
599 600
600 601
601 602
602 603
603 604
604 605
605 606
606 607
607 608
608 609
609 610
610 611
611 612
612 613
613 614
614 615
615 616
616 617
617 618
618 619
619 620
620 621
621 622
622 623
623 624
624 625
625 626
626 627
627 628
628 629
629 630
630 631
631 632
632 633
633 634
634 635
635 636
636 637
637 638
638 639
639 640
640 641
641 642
642 643
643 644
644 645
645 646
646 647
647 648
648 649
649 650
650 651
651 652
652 653
653 654
654 655
655 656
656 657
657 658
658 659
659 660
660 661
661 662
662 663
663 664
664 665
665 666
666 667
667 668
668 669
669 670
670 671
671 672
672 673
673 674
674 675
675 676
676 677
677 678
678 679
679 680
681 682
682 683
684 685
685 686
686 687
687 688
688 689
689 690
690 691
691 692
692 693
693 694
694 695
695 696
696 697
697 698
698 699
699 700
700 701
701 702
702 703
703 704
704 705
705 706
706 707
707 708
708 709
710 711
711 712
713 714
714 715
715 716
716 717
717 718
718 719
719 720
720 721
721 722
722 723
723 724
724 725
725 726
726 727
727 728
728 729
729 730
730 731
731 732
732 733
733 734
734 735
735 736
736 737
737 738
738 739
739 740
740 741
741 742
742 743
743 744
744 745
745 746
746 747
747 748
748 749
749 750
750 751
751 752
752 753
753 754
754 755
755 756
756 757
757 758
758 759
759 760
760 761
761 762
762 763
763 764
764 765
765 766
766 767
767 768
768 769
769 770
770 771
773 774
774 775
775 776
776 777
777 778
778 779
779 780
780 781
781 782
782 783
783 784
784 785
785 786
786 787
787 788
788 789
789 790
790 791
791 792
792 793
793 794
794 795
795 796
796 797
797 798
798 799
799 800
800 801
801 802
802 803
803 804
804 805
805 806
806 807
807 808
808 809
809 810
810 811
811 812
812 813
813 814
814 815
815 816
816 817
817 818
818 819
819 820
820 821
821 822
822 823
823 824
824 825
825 826
826 827
827 828
828 829
829 830
830 831
831 832
832 833
833 834
834 835
835 836
836 837
837 838
838 839
839 840
840 841
841 842
842 843
843 844
844 845
845 846
846 847
847 848
848 849
849 850
850 851
851 852
852 853
853 854
854 855
855 856
856 857
858 859
859 860
860 861
861 862
862 863
863 864
864 865
865 866
866 867
867 868
868 869
869 870
870 871
871 872
872 873
873 874
874 875
875 876
876 877
877 878
878 879
879 880
880 881
881 882
882 883
883 884
884 885
885 886
886 887
887 888
888 889
889 890
890 891
891 892
892 893
893 894
894 895
895 896
896 897
897 898
898 899
899 900
900 901
901 902
902 903
903 904
904 905
905 906
906 907
907 908
908 909
909 910
910 911
911 912
912 913
913 914
914 915
915 916
916 917
917 918
918 919
919 920
920 921
921 922
922 923
923 924
924 925
925 926
926 927
927 928
928 929
929 930
930 931
931 932
932 933
933 934
934 935
935 936
936 937
937 938
938 939
939 940
940 941
941 942
942 943
943 944
944 945
945 946
946 947
947 948
948 949
949 950
950 951
951 952
952 953
953 954
954 955
955 956
956 957
957 958
958 959
959 960
960 961
961 962
962 963
963 964
964 965
965 966
966 967
967 968
968 969
969 970
970 971
971 972
972 973
973 974
974 975
975 976
976 977
977 978
978 979
979 980
980 981
981 982
982 983
983 984
984 985
985 986
986 987
987 988
988 989
989 990
990 991
991 992
992 993
993 994
994 995
995 996
996 997
997 998
998 999
999 1000
1000 1001
1001 1002
1002 1003
1003 1004
1004 1005
1005 1006
1006 1007
1007 1008
1008 1009
1009 1010
1010 1011
1011 1012
1012 1013
1013 1014
1014 1015
1015 1016
1016 1017
1017 1018
1018 1019
1019 1020
1020 1021
1021 1022
1022 1023
1023 1024
1024 1025
1025 1026
1026 1027
1027 1028
1028 1029
1029 1030
1030 1031
1031 1032
1032 1033
1033 1034
1034 1035
1035 1036
1036 1037
1037 1038
1038 1039
1039 1040
1040 1041
1041 1042
1042 1043
1043 1044
1044 1045
1045 1046
1046 1047
1047 1048
1048 1049
1049 1050
1050 1051
1051 1052
1052 1053
1053 1054
1054 1055
1055 1056
1056 1057
1057 1058
1058 1059
1059 1060
1060 1061
1061 1062
1062 1063
1063 1064
1064 1065
1065 1066
1066 1067
1067 1068
1068 1069
1069 1070
1070 1071
1071 1072
1072 1073
1073 1074
1074 1075
1075 1076
1076 1077
1077 1078
1078 1079
1079 1080
1080 1081
1081 1082
1082 1083
1083 1084
1084 1085
1085 1086
1086 1087
1087 1088
1088 1089
1089 1090
1090 1091
1091 1092
1092 1093
1093 1094
1094 1095
1095 1096
1096 1097
1097 1098
1098 1099
1099 1100
1100 1101
1101 1102
1102 1103
1103 1104
1104 1105
1105 1106
1106 1107
1107 1108
1108 1109
1109 1110
1110 1111
1111 1112
1112 1113
1113 1114
1114 1115
1115 1116
1116 1117
1117 1118
1118 1119
1119 1120
1120 1121
1121 1122
1122 1123
1123 1124
1124 1125
1125 1126
1126 1127
1127 1128
1128 1129
1129 1130
1130 1131
1131 1132
1132 1133
1133 1134
1134 1135
1135 1136
1136 1137
1137 1138
1138 1139
1139 1140
1140 1141
1141 1142
1142 1143
1143 1144
1144 1145
1145 1146
1146 1147
1147 1148
